certificates/rado_a15_c185_N45.drat
12 -45 0
39 -45 0
-45 0
10 0
-12 0
7 0
17 0
40 0
-42 0
-13 0
-5 0
37 0
3 0
23 0
2 0
35 0
32 0
22 0
8 0
18 0
15 0
0
